SCIP Status        : solving was interrupted [time limit reached]
Total Time         :    3600.01
  solving          :    3600.00
  presolving       :       0.14 (included in solving)
  reading          :       0.01
  copying          :       0.06 (8 #copies) (minimal 0.00, maximal 0.01, average 0.01)
Original Problem   :
  Problem name     : benchmark/block2_45_10_9_12.design
  Variables        : 1108 (45 binary, 0 integer, 0 implicit integer, 1063 continuous)
  Constraints      : 1524 initial, 1524 maximal
  Objective        : minimize, 1 non-zeros (abs.min = 1, abs.max = 1)
Presolved Problem  :
  Problem name     : t_benchmark/block2_45_10_9_12.design
  Variables        : 1605 (45 binary, 0 integer, 0 implicit integer, 1560 continuous)
  Constraints      : 1524 initial, 1534 maximal
  Objective        : minimize, 1 non-zeros (abs.min = 1, abs.max = 1)
  Nonzeros         : 5168 constraint, 0 clique table
Presolvers         :   ExecTime  SetupTime  Calls  FixedVars   AggrVars   ChgTypes  ChgBounds   AddHoles    DelCons    AddCons   ChgSides   ChgCoefs
  boundshift       :       0.00       0.00      0          0          0          0          0          0          0          0          0          0
  convertinttobin  :       0.00       0.00      0          0          0          0          0          0          0          0          0          0
  domcol           :       0.00       0.00      1          0          0          0          0          0          0          0          0          0
  dualagg          :       0.00       0.00      0          0          0          0          0          0          0          0          0          0
  dualcomp         :       0.00       0.00      1          0          0          0          0          0          0          0          0          0
  dualinfer        :       0.00       0.00      0          0          0          0          0          0          0          0          0          0
  dualsparsify     :       0.00       0.00      1          0          0          0          0          0          0          0          0          0
  gateextraction   :       0.00       0.00      0          0          0          0          0          0          0          0          0          0
  implics          :       0.00       0.00      1          0          0          0          0          0          0          0          0          0
  inttobinary      :       0.00       0.00      0          0          0          0          0          0          0          0          0          0
  qpkktref         :       0.00       0.00      0          0          0          0          0          0          0          0          0          0
  redvub           :       0.00       0.00      0          0          0          0          0          0          0          0          0          0
  sparsify         :       0.00       0.00      1          0          0          0          0          0          0          0          0          0
  stuffing         :       0.00       0.00      0          0          0          0          0          0          0          0          0          0
  trivial          :       0.00       0.00      2         36          0          0          0          0          0          0          0          0
  tworowbnd        :       0.00       0.00      0          0          0          0          0          0          0          0          0          0
  dualfix          :       0.00       0.00      2         36          0          0          0          0          0          0          0          0
  genvbounds       :       0.00       0.00      0          0          0          0          0          0          0          0          0          0
  probing          :       0.01       0.00      1          0          0          0          0          0          0          0          0          0
  pseudoobj        :       0.00       0.00      0          0          0          0          0          0          0          0          0          0
  symmetry         :       0.00       0.00      1          0          0          0          0          0          0          0          0          0
  vbounds          :       0.00       0.00      0          0          0          0          0          0          0          0          0          0
  linear           :       0.02       0.00      3          0          0          0          0          0          0          0          0          0
  nonlinear        :       0.11       0.02      4          0          0          0         81          0          0          0          0          0
  benders          :       0.00       0.00      0          0          0          0          0          0          0          0          0          0
  components       :       0.00       0.00      1          0          0          0          0          0          0          0          0          0
  root node        :          -          -      -          0          -          -       2536          -          -          -          -          -
Constraints        :     Number  MaxNumber  #Separate #Propagate    #EnfoLP    #EnfoRelax  #EnfoPS    #Check   #ResProp    Cutoffs    DomReds       Cuts    Applied      Conss   Children
  benderslp        :          0          0          0          0      17004          0          0      12397          0          0          0          0          0          0          0
  integral         :          0          0          0          0      17004          0          0      12397          0          0       3125          0          0          0      33562
  linear           :       1037+      1047         72     456013          0          0          0      12391          2         52      19029         21          1          0          0
  nonlinear        :        487        487     141720     455962          0          0          0      11242          0         63     541881    4566895    4530984          0          0
  benders          :          0          0          0          0          0          0          0          7          0          0          0          0          0          0          0
  countsols        :          0          0          0          0          0          0          0          7          0          0          0          0          0          0          0
  components       :          0          0          0          0          0          0          0          0          0          0          0          0          0          0          0
Constraint Timings :  TotalTime  SetupTime   Separate  Propagate     EnfoLP     EnfoPS     EnfoRelax   Check    ResProp    SB-Prop
  benderslp        :       0.02       0.00       0.00       0.00       0.02       0.00       0.00       0.00       0.00       0.00
  integral         :      14.98       0.00       0.00       0.00      14.97       0.00       0.00       0.01       0.00       0.00
  linear           :      10.68       0.00       0.01      10.51       0.00       0.00       0.00       0.14       0.00       0.02
  nonlinear        :     228.17       0.02     159.54      63.36       0.00       0.00       0.00       5.04       0.00       0.21
  benders          :       0.00       0.00       0.00       0.00       0.00       0.00       0.00       0.00       0.00       0.00
  countsols        :       0.00       0.00       0.00       0.00       0.00       0.00       0.00       0.00       0.00       0.00
  components       :       0.08       0.00       0.00       0.07       0.00       0.00       0.00       0.00       0.00       0.01
Propagators        : #Propagate   #ResProp    Cutoffs    DomReds
  dualfix          :          3          0          0          0
  genvbounds       :          0          0          0          0
  nlobbt           :          0          0          0          0
  obbt             :          0          0          0          0
  probing          :          0          0          0          0
  pseudoobj        :      52552          0          0         15
  redcost          :     175748          0          0          6
  rootredcost      :          5          0          0       2032
  symmetry         :          0          0          0          0
  vbounds          :      98575          0          0          0
Propagator Timings :  TotalTime  SetupTime   Presolve  Propagate    ResProp    SB-Prop
  dualfix          :       0.00       0.00       0.00       0.00       0.00       0.00
  genvbounds       :       0.32       0.00       0.00       0.32       0.00       0.00
  nlobbt           :       0.00       0.00       0.00       0.00       0.00       0.00
  obbt             :       0.00       0.00       0.00       0.00       0.00       0.00
  probing          :       0.01       0.00       0.01       0.00       0.00       0.00
  pseudoobj        :       0.33       0.00       0.00       0.33       0.00       0.00
  redcost          :       3.20       0.00       0.00       3.20       0.00       0.00
  rootredcost      :       0.32       0.00       0.00       0.32       0.00       0.00
  symmetry         :       0.23       0.00       0.00       0.23       0.00       0.00
  vbounds          :       0.30       0.00       0.00       0.30       0.00       0.00
Conflict Analysis  :       Time      Calls    Success    DomReds  Conflicts   Literals    Reconvs ReconvLits   Dualrays   Nonzeros   LP Iters   (pool size: [--,--])
  propagation      :       0.00         30          2          -          2       97.5          0        0.0          -          -          -
  infeasible LP    :       0.00          4          4          -          0        0.0          0        0.0        219      155.2          0
  bound exceed. LP :       2.62       1157        215          -          0        0.0          0        0.0          0        0.0      15453
  strong branching :       0.00          0          0          -          0        0.0          0        0.0          -          -          0
  pseudo solution  :       0.00          0          0          -          0        0.0          0        0.0          -          -          -
  applied globally :       0.00          -          -          0          0        0.0          -          -        219          -          -
  applied locally  :          -          -          -          0          0        0.0          -          -          0          -          -
Separators         :   ExecTime  SetupTime      Calls  RootCalls    Cutoffs    DomReds  FoundCuts ViaPoolAdd  DirectAdd    Applied ViaPoolApp  DirectApp      Conss
  cut pool         :       0.01          -       2041         74          -          -         37         53          -          -          -          -          -    (maximal pool size:          5)
  aggregation      :       8.36       0.00       5496         72          0          0          0          0          0          0          0          0          0
  > cmir           :          -          -          -          -          -          -          -          0          0          0          0          0          -
  > flowcover      :          -          -          -          -          -          -          -          0          0          0          0          0          -
  > knapsackcover  :          -          -          -          -          -          -          -          0          0          0          0          0          -
  cgmip            :       0.00       0.00          0          0          0          0          0          0          0          0          0          0          0
  clique           :       0.00       0.00          1          1          0          0          0          0          0          0          0          0          0
  closecuts        :       0.00       0.00          0          0          0          0          0          0          0          0          0          0          0
  convexproj       :       0.00       0.00          0          0          0          0          0          0          0          0          0          0          0
  disjunctive      :       0.00       0.00          0          0          0          0          0          0          0          0          0          0          0
  eccuts           :       0.00       0.00          0          0          0          0          0          0          0          0          0          0          0
  gauge            :       0.00       0.00          0          0          0          0          0          0          0          0          0          0          0
  gomory           :       9.08       0.00       3135         10          0          0         37         53          0         13         13          0          0
  > gomorymi       :          -          -          -          -          -          -          -         53          0         13         13          0          -
  > strongcg       :          -          -          -          -          -          -          -          0          0          0          0          0          -
  impliedbounds    :       0.38       0.00       5496         72          0          0          0          0          0          0          0          0          0
  interminor       :       0.00       0.00          0          0          0          0          0          0          0          0          0          0          0
  intobj           :       0.00       0.00          0          0          0          0          0          0          0          0          0          0          0
  mcf              :       0.00       0.00          3          3          0          0          0          0          0          0          0          0          0
  minor            :       0.01       0.00          0          0          0          0          0          0          0          0          0          0          0
  mixing           :       0.15       0.00       5496         72          0          0          0          0          0          0          0          0          0
  oddcycle         :       0.00       0.00          0          0          0          0          0          0          0          0          0          0          0
  rapidlearning    :       0.00       0.00          0          0          0          0          0          0          0          0          0          0          0
  rlt              :       0.01       0.00         10         10          0          0          0          0          0          0          0          0          0
  zerohalf         :       1.06       0.00       3145         20          0          0          0          0          0          0          0          0          0
Cutselectors       :   ExecTime  SetupTime      Calls  RootCalls   Selected     Forced   Filtered  RootSelec   RootForc   RootFilt 
  hybrid           :       3.96       0.00     141720         72    4530998          0      35971       4339          0        282
Pricers            :   ExecTime  SetupTime      Calls       Vars
  problem variables:       0.00          -          0          0
Branching Rules    :   ExecTime  SetupTime   BranchLP  BranchExt   BranchPS    Cutoffs    DomReds       Cuts      Conss   Children
  allfullstrong    :       0.00       0.00          0          0          0          0          0          0          0          0
  cloud            :       0.00       0.00          0          0          0          0          0          0          0          0
  distribution     :       0.00       0.00          0          0          0          0          0          0          0          0
  fullstrong       :       0.00       0.00          0          0          0          0          0          0          0          0
  inference        :       0.00       0.00          0          0          0          0          0          0          0          0
  leastinf         :       0.00       0.00          0          0          0          0          0          0          0          0
  lookahead        :       0.00       0.00          0          0          0          0          0          0          0          0
  mostinf          :       0.00       0.00          0          0          0          0          0          0          0          0
  multaggr         :       0.00       0.00          0          0          0          0          0          0          0          0
  nodereopt        :       0.00       0.00          0          0          0          0          0          0          0          0
  pscost           :       0.00       0.00          0          0          0          0          0          0          0          0
  random           :       0.00       0.00          0          0          0          0          0          0          0          0
  relpscost        :      14.92       0.00      17004          0          0          0       3125          0          0      33562
  vanillafullstrong:       0.00       0.00          0          0          0          0          0          0          0          0
Primal Heuristics  :   ExecTime  SetupTime      Calls      Found       Best
  LP solutions     :       0.00          -          -          0          0
  relax solutions  :       0.00          -          -          0          0
  pseudo solutions :       0.00          -          -          0          0
  strong branching :       0.02          -          -          0          0
  actconsdiving    :       0.00       0.00          0          0          0
  adaptivediving   :       2.93       0.00         62          0          0
  alns             :       6.30       0.00          8          1          1
  bound            :       0.00       0.00          0          0          0
  clique           :       0.00       0.00          0          0          0
  coefdiving       :       0.00       0.00          0          0          0
  completesol      :       0.00       0.00          0          0          0
  conflictdiving   :      41.87       0.00        551          0          0
  crossover        :       0.00       0.00          0          0          0
  dins             :       0.00       0.00          0          0          0
  distributiondivin:     334.07       0.00        813          0          0
  dps              :       0.00       0.00          0          0          0
  dualval          :       0.00       0.00          0          0          0
  farkasdiving     :       0.00       0.00          0          0          0
  feaspump         :       7.80       0.00         47          0          0
  fixandinfer      :       0.00       0.00          0          0          0
  fracdiving       :      60.59       0.00        813          0          0
  gins             :       0.01       0.00          0          0          0
  guideddiving     :      63.42       0.00        817          0          0
  indicator        :       0.17       0.00          0          0          0
  indicatordiving  :       0.00       0.00          0          0          0
  intdiving        :       0.00       0.00          0          0          0
  intshifting      :       1.66       0.00         44          0          0
  linesearchdiving :      46.75       0.00        817          0          0
  localbranching   :       0.00       0.00          0          0          0
  locks            :       0.02       0.00          1          0          0
  lpface           :       0.01       0.00          0          0          0
  mpec             :       3.88       0.00          1          0          0
  multistart       :       0.00       0.00          0          0          0
  mutation         :       0.00       0.00          0          0          0
  nlpdiving        :       2.15       0.00          1          0          0
  objpscostdiving  :       2.03       0.00          6          0          0
  octane           :       0.00       0.00          0          0          0
  ofins            :       0.02       0.00          0          0          0
  oneopt           :       0.00       0.00          6          0          0
  padm             :       0.00       0.00          0          0          0
  proximity        :       0.00       0.00          0          0          0
  pscostdiving     :      80.66       0.00        794          0          0
  randrounding     :       0.79       0.00       1546          0          0
  rens             :       0.00       0.00          0          0          0
  reoptsols        :       0.00       0.00          0          0          0
  repair           :       0.00       0.00          0          0          0
  rins             :       0.00       0.00          0          0          0
  rootsoldiving    :       0.75       0.00         10          0          0
  rounding         :       1.01       0.00       5690          0          0
  shiftandpropagate:       0.01       0.00          1          0          0
  shifting         :       1.19       0.00       1115          0          0
  simplerounding   :       0.12       0.00          0          0          0
  subnlp           :       6.65       0.00         27          5          5
  trivial          :       0.00       0.00          2          0          0
  trivialnegation  :       0.00       0.00          0          0          0
  trustregion      :       0.00       0.00          0          0          0
  trysol           :       0.06       0.00          0          0          0
  twoopt           :       0.00       0.00          0          0          0
  undercover       :       0.21       0.00          1          0          0
  vbounds          :       0.00       0.00          0          0          0
  veclendiving     :      46.32       0.00        816          0          0
  zeroobj          :       0.00       0.00          0          0          0
  zirounding       :       0.06       0.00       1000          0          0
  other solutions  :          -          -          -          0          -
Diving (single)    :      Calls      Nodes   LP Iters Backtracks  Conflicts   MinDepth   MaxDepth   AvgDepth  RoundSols  NLeafSols  MinSolDpt  MaxSolDpt  AvgSolDpt
  actconsdiving    :          0          -          -          -          -          -          -          -          -          -          -          -          -
  coefdiving       :          0          -          -          -          -          -          -          -          -          -          -          -          -
  conflictdiving   :        551      10462     370501        165         31         15         45       32.3          0          -          -          -          -
  distributiondivin:        813      12975     489610        200         71         15         45       31.7          0          -          -          -          -
  farkasdiving     :          0          -          -          -          -          -          -          -          -          -          -          -          -
  fracdiving       :        813      22311     510709         18          8         30         45       43.3          0          -          -          -          -
  guideddiving     :        817      20506     536707         84         12         33         45       42.1          0          -          -          -          -
  indicatordiving  :          0          -          -          -          -          -          -          -          -          -          -          -          -
  linesearchdiving :        817      15784     394034         39          7         26         45       36.1          0          -          -          -          -
  pscostdiving     :        794      23066     671195          6          2         37         45       44.2          0          -          -          -          -
  veclendiving     :        816       5796     385307        547         90         15         44       22.8          0          -          -          -          -
Diving (adaptive)  :      Calls      Nodes   LP Iters Backtracks  Conflicts   MinDepth   MaxDepth   AvgDepth  RoundSols  NLeafSols  MinSolDpt  MaxSolDpt  AvgSolDpt
  actconsdiving    :         21        130       9253          6          0         16         26       21.0          0          -          -          -          -
  coefdiving       :         19        109       7463          2          0         16         24       20.8          0          -          -          -          -
  conflictdiving   :          0          -          -          -          -          -          -          -          -          -          -          -          -
  distributiondivin:          0          -          -          -          -          -          -          -          -          -          -          -          -
  farkasdiving     :          0          -          -          -          -          -          -          -          -          -          -          -          -
  fracdiving       :          4        116       2643          0          0         41         45       43.2          0          -          -          -          -
  guideddiving     :          1         30        600          0          0         39         39       39.0          0          -          -          -          -
  indicatordiving  :          0          -          -          -          -          -          -          -          -          -          -          -          -
  linesearchdiving :          5        132       3023          0          0         34         40       37.8          0          -          -          -          -
  pscostdiving     :          5        140       3243          1          0         44         45       44.2          0          -          -          -          -
  veclendiving     :          7         57       2835          0          0         16         23       19.9          0          -          -          -          -
Neighborhoods      :      Calls  SetupTime  SolveTime SolveNodes       Sols       Best       Exp3  EpsGreedy        UCB TgtFixRate  Opt  Inf Node Stal  Sol  Usr Othr Actv
  rens             :          1       0.02       0.63          1          0          0    0.00000   -1.00000    0.55840      0.700    0    1    0    0    0    0    0    1
  rins             :          1       0.01       0.93          9          1          1    0.00000   -1.00000    0.95906      0.700    1    0    0    0    0    0    0    1
  mutation         :          1       0.02       0.87          7          0          0    0.00000   -1.00000    0.55307      0.700    0    1    0    0    0    0    0    1
  localbranching   :          1       0.02       0.47          1          0          0    0.00000   -1.00000    0.55818      0.700    0    1    0    0    0    0    0    1
  crossover        :          1       0.02       0.92         19          0          0    0.00000   -1.00000    0.53818      0.700    0    1    0    0    0    0    0    1
  proximity        :          1       0.01       1.82          1          0          0    0.00000   -1.00000    0.55818      0.700    0    1    0    0    0    0    0    1
  zeroobjective    :          1       0.01       0.00          0          0          0    0.00000   -1.00000    0.05929      0.900    0    0    0    0    0    0    1    1
  dins             :          1       0.02       0.47          1          0          0    0.00000   -1.00000    0.55818      0.700    0    1    0    0    0    0    0    1
  trustregion      :          0       0.00       0.00          0          0          0    0.00000   -1.00000    1.00000      0.900    0    0    0    0    0    0    0    0
Expressions        :   #IntEval  IntEvalTi   #RevProp  RevPropTi    DomReds    Cutoffs  #Estimate  EstimTime  Branching  #Simplify SimplifyTi Simplified
  pow              :    9170876       2.66    3190920       1.10    5057665          0        811       0.00          0       1071       0.00          0
  prod             :    7517008       2.76      77280       0.32        252          0          0       0.00          0        812       0.00        405
  sum              :    8563436       3.06    5081964       2.29     437622         42         82       0.00          0       1055       0.00         82
  var              :   20779354       6.04          0       0.00          0          0          0       0.00          0       2854       0.00          0
  varidx           :          0       0.00          0       0.00          0          0          0       0.00          0          0       0.00          0
Nonlinear Conshdlr :   WeakSepa  TightenLP DespTghtLP DespBranch DespCutoff    ForceLP  CanonTime
  enforce          :          0          0          0          0          0          0
  presolve         :                                                                         0.09
Nlhdlrs            :    Detects  DetectAll DetectTime   #IntEval  IntEvalTi   #RevProp  RevPropTi    DomReds    Cutoffs   #Enforce   EnfoTime       Cuts  Branching
  soc              :        405        405       0.00          0       0.00          0       0.00          0          0   19518748      49.44    4424445          0
  convex           :          1          1       0.00          0       0.00          0       0.00          0          0     141721       1.09     141720          0
  concave          :          0          0       0.00          0       0.00          0       0.00          0          0          0       0.00          0          0
  quotient         :          0          0       0.01          0       0.00          0       0.00          0          0          0       0.00          0          0
  quadratic        :          0          0       0.01          0       0.00          0       0.00          0          0          0       0.00          0          0
  default          :       2415      12075       0.00   25249298      20.04    8353245      19.85    5495539         42        893       0.00        730          0
  bilinear         :          0          0       0.00          0       0.00          0       0.00          0          0          0       0.00          0          0
  perspective      :          0          0       0.00          0       0.00          0       0.00          0          0          0       0.00          0          0
LP                 :       Time      Calls Iterations  Iter/call   Iter/sec  Time-0-It Calls-0-It    ItLimit
  primal LP        :     395.95      19045          2       1.00       0.01     395.82      19043
  dual LP          :    2120.54     158763   17161288     108.26    8092.89       0.09        245
  lex dual LP      :       0.00          0          0       0.00          -
  barrier LP       :       0.00          0          0       0.00          -       0.00          0
  resolve instable :       0.00          0          0       0.00          -
  diving/probing LP:     290.14      26057    3471795     133.24   11965.93
  strong branching :       9.88        601     103564     172.32   10482.19          -          -         66
    (at root node) :          -         45        844      18.76          -
  conflict analysis:       1.44       1637      15453       9.44   10731.25
NLP relaxation     :
  solve time       :       2.13 (9 calls)
  convexity        :  nonconvex (65 linear rows, 82 convex ineq., 405 nonconvex ineq., 0 nonlinear eq. or two-sided ineq.)
NLP Solvers        :  #Problems  ProblemTi    #Solves  SolveTime      #Iter  Time/Iter      #Okay #TimeLimit #IterLimit #LObjLimit #Interrupt  #NumError #EvalError  #OutOfMem #LicenseEr #OtherTerm   #GlobOpt    #LocOpt  #Feasible #LocInfeas #GlobInfea #Unbounded   #Unknown
  ipopt            :         29       8.21         37      11.44       1719       0.01         29          0          8          0          0          0          0          0          0          0          0         15          0         14          0          0          8
B&B Tree           :
  number of runs   :          1
  nodes            :      16782 (16781 internal, 1 leaves)
  feasible leaves  :          0
  infeas. leaves   :          0
  objective leaves :          0
  nodes (total)    :      16782 (16781 internal, 1 leaves)
  nodes left       :      16782
  max depth        :         24
  max depth (total):         24
  backtracks       :       5645 (33.6%)
  early backtracks :          0 (0.0%)
  nodes exc. ref.  :          0 (0.0%)
  delayed cutoffs  :          0
  repropagations   :         10 (868 domain reductions, 0 cutoffs)
  avg switch length:       7.66
  switching time   :     357.97
Estim. Tree Size   :         -1
Estimation Tree    : 33563 nodes (16781 visited, 16781 internal, 0 leaves, 16782 open), weight: 0.0000 completed 0.0810
Estimations        :      estim      value      trend resolution     smooth
  wbe              :         -1          -          -          -          -
  tree-profile     :         -1          -          -          -          -
  gap              :         -1    0.86205                     1           
  tree-weight      :         -1    0.00000                     1           
  leaf-frequency   :         -1   -0.00003                     1           
  ssg              :         -1    0.87209                     1           
  open-nodes       :         -1 16782.00000                     1           
Root Node          :
  First LP value   : -2.46020027592781e+00
  First LP Iters   :       1489 (49633.33 Iter/sec)
  First LP Time    :       0.03
  Final Dual Bound : -2.06462985930347e+00
  Final Root Iters :      11303
  Root LP Estimate : -1.85791266192015e+00
Solution           :
  Solutions found  :          6 (6 improvements)
  First Solution   : -1.39495346303150e+00   (in run 1, after 1 nodes, 0.71 seconds, depth 0, found by <locks>)
  Gap First Sol.   :      76.36 %
  Gap Last Sol.    :      16.72 %
  Primal Bound     : -1.70537490368219e+00   (in run 1, after 5474 nodes, 1019.19 seconds, depth 20, found by <alns>)
  Dual Bound       : -1.97826798481206e+00
  Gap              :      16.00 %
Integrals          :      Total       Avg%
  primal-dual      :   52818.23      14.67
  primal-ref       :          -          - (not evaluated)
  dual-ref         :          -          - (not evaluated)
